p cnf 773 2871
1 0
-2 0
-3 0
-4 0
-5 0
-6 0
-7 0
-8 0
-9 0
-10 0
-11 0
-12 0
-13 0
-14 0
-15 0
-16 0
-17 0
-18 0
-19 0
-20 0
-21 0
-22 0
-23 0
-24 0
-25 0
-26 0
-27 0
-28 0
-29 0
-30 0
-31 0
-32 0
-33 0
-34 0
-35 0
-36 0
-37 0
-38 0
-39 0
-40 0
41 42 43 44 0
-41 -42 0
-41 -43 0
-41 -44 0
-42 -43 0
-42 -44 0
-43 -44 0
-1 45 -46 0
1 -45 -46 0
-1 -45 46 0
1 45 46 0
-41 -46 0
1 -45 -47 0
-1 45 -47 0
47 -1 -45 0
47 1 45 0
-42 47 0
-1 48 0
-45 48 0
1 45 -48 0
1 -48 -49 0
-1 48 -49 0
-1 -48 49 0
1 48 49 0
-43 49 0
1 50 0
45 50 0
-1 -45 -50 0
-1 50 -51 0
1 -50 -51 0
51 -50 -1 0
1 50 51 0
-44 -51 0
-2 52 -53 0
2 -52 -53 0
-2 -52 53 0
2 52 53 0
-41 -53 0
2 -54 -55 0
-2 54 -55 0
55 -2 -54 0
55 2 54 0
-42 55 0
-52 56 0
-45 56 0
-54 56 0
52 45 54 -56 0
2 -56 -57 0
-2 56 -57 0
-2 -56 57 0
2 56 57 0
-43 57 0
52 58 0
45 58 0
54 58 0
-52 -45 -54 -58 0
-2 58 -59 0
2 -58 -59 0
59 -58 -2 0
2 58 59 0
-44 -59 0
-60 54 -61 0
60 -54 -61 0
-60 -54 61 0
60 54 61 0
-41 -61 0
60 -45 -62 0
45 -60 -62 0
62 -60 -45 0
62 60 45 0
-42 62 0
-45 63 0
-54 63 0
45 54 -63 0
60 -63 -64 0
-60 63 -64 0
-60 -63 64 0
60 63 64 0
-43 64 0
45 65 0
54 65 0
-45 -54 -65 0
-60 65 -66 0
60 -65 -66 0
66 -65 -60 0
60 65 66 0
-44 -66 0
-3 67 -68 0
3 -67 -68 0
-3 -67 68 0
3 67 68 0
-41 -68 0
3 -69 -70 0
-3 69 -70 0
70 -3 -69 0
70 3 69 0
-42 70 0
-67 71 0
-69 71 0
-72 71 0
67 69 72 -71 0
3 -71 -73 0
-3 71 -73 0
-3 -71 73 0
3 71 73 0
-43 73 0
67 74 0
69 74 0
72 74 0
-67 -69 -72 -74 0
-3 74 -75 0
3 -74 -75 0
75 -74 -3 0
3 74 75 0
-44 -75 0
-76 69 -77 0
76 -69 -77 0
-76 -69 77 0
76 69 77 0
-41 -77 0
76 -72 -78 0
-76 72 -78 0
78 -76 -72 0
78 76 72 0
-42 78 0
76 -71 -79 0
-76 71 -79 0
-76 -71 79 0
76 71 79 0
-43 79 0
-76 74 -80 0
76 -74 -80 0
80 -74 -76 0
76 74 80 0
-44 -80 0
-81 72 -82 0
81 -72 -82 0
-81 -72 82 0
81 72 82 0
-41 -82 0
81 -67 -83 0
-81 67 -83 0
83 -81 -67 0
83 81 67 0
-42 83 0
-3 84 0
-72 84 0
3 72 -84 0
81 -84 -85 0
-81 84 -85 0
-81 -84 85 0
81 84 85 0
-43 85 0
3 86 0
72 86 0
-3 -72 -86 0
-81 86 -87 0
81 -86 -87 0
87 -86 -81 0
81 86 87 0
-44 -87 0
-4 88 -89 0
4 -88 -89 0
-4 -88 89 0
4 88 89 0
-41 -89 0
4 -72 -90 0
-4 72 -90 0
90 -4 -72 0
90 4 72 0
-42 90 0
-67 91 0
-69 91 0
-72 91 0
-88 91 0
67 69 72 88 -91 0
4 -91 -92 0
-4 91 -92 0
-4 -91 92 0
4 91 92 0
-43 92 0
67 93 0
69 93 0
72 93 0
88 93 0
-94 0
-4 93 -95 0
4 -93 -95 0
95 -93 -4 0
4 93 95 0
-44 -95 0
-5 96 -97 0
5 -96 -97 0
-5 -96 97 0
5 96 97 0
-41 -97 0
5 -98 -99 0
-5 98 -99 0
99 -5 -98 0
99 5 98 0
-42 99 0
-96 100 0
-98 100 0
-101 100 0
-102 100 0
96 98 101 102 -100 0
5 -100 -103 0
-5 100 -103 0
-5 -100 103 0
5 100 103 0
-43 103 0
96 104 0
98 104 0
101 104 0
102 104 0
-105 0
-5 104 -106 0
5 -104 -106 0
106 -104 -5 0
5 104 106 0
-44 -106 0
-107 98 -108 0
107 -98 -108 0
-107 -98 108 0
107 98 108 0
-41 -108 0
107 -101 -109 0
-107 101 -109 0
109 -107 -101 0
109 107 101 0
-42 109 0
-98 110 0
-101 110 0
-102 110 0
98 101 102 -110 0
107 -110 -111 0
-107 110 -111 0
-107 -110 111 0
107 110 111 0
-43 111 0
98 112 0
101 112 0
102 112 0
-98 -101 -102 -112 0
-107 112 -113 0
107 -112 -113 0
113 -112 -107 0
107 112 113 0
-44 -113 0
-6 101 -114 0
6 -101 -114 0
-6 -101 114 0
6 101 114 0
-41 -114 0
6 -102 -115 0
-6 102 -115 0
115 -6 -102 0
115 6 102 0
-42 115 0
-101 116 0
-102 116 0
101 102 -116 0
6 -116 -117 0
-6 116 -117 0
-6 -116 117 0
6 116 117 0
-43 117 0
101 118 0
102 118 0
-101 -102 -118 0
-6 118 -119 0
6 -118 -119 0
119 -118 -6 0
6 118 119 0
-44 -119 0
-7 102 -120 0
7 -102 -120 0
-7 -102 120 0
7 102 120 0
-41 -120 0
7 -101 -121 0
-7 101 -121 0
121 -7 -101 0
121 7 101 0
-42 121 0
-6 122 0
-102 122 0
6 102 -122 0
7 -122 -123 0
-7 122 -123 0
-7 -122 123 0
7 122 123 0
-43 123 0
6 124 0
102 124 0
-6 -102 -124 0
-7 124 -125 0
7 -124 -125 0
125 -124 -7 0
7 124 125 0
-44 -125 0
-8 126 -127 0
8 -126 -127 0
-8 -126 127 0
8 126 127 0
-41 -127 0
8 -128 -129 0
-8 128 -129 0
129 -8 -128 0
129 8 128 0
-42 129 0
-126 130 0
-128 130 0
-131 130 0
-132 130 0
-133 130 0
-134 130 0
-135 130 0
-136 130 0
137 0
8 -130 -138 0
-8 130 -138 0
-8 -130 138 0
8 130 138 0
-43 138 0
126 139 0
128 139 0
131 139 0
132 139 0
133 139 0
134 139 0
135 139 0
136 139 0
-140 0
-8 139 -141 0
8 -139 -141 0
141 -139 -8 0
8 139 141 0
-44 -141 0
-142 128 -143 0
142 -128 -143 0
-142 -128 143 0
142 128 143 0
-41 -143 0
142 -131 -144 0
-142 131 -144 0
144 -142 -131 0
144 142 131 0
-42 144 0
-128 145 0
-131 145 0
-132 145 0
-133 145 0
-134 145 0
-135 145 0
-136 145 0
146 0
142 -145 -147 0
-142 145 -147 0
-142 -145 147 0
142 145 147 0
-43 147 0
128 148 0
131 148 0
132 148 0
133 148 0
134 148 0
135 148 0
136 148 0
-149 0
-142 148 -150 0
142 -148 -150 0
150 -148 -142 0
142 148 150 0
-44 -150 0
-151 131 -152 0
151 -131 -152 0
-151 -131 152 0
151 131 152 0
-41 -152 0
151 -132 -153 0
-151 132 -153 0
153 -151 -132 0
153 151 132 0
-42 153 0
-131 154 0
-132 154 0
-133 154 0
-134 154 0
-135 154 0
-136 154 0
155 0
151 -154 -156 0
-151 154 -156 0
-151 -154 156 0
151 154 156 0
-43 156 0
131 157 0
132 157 0
133 157 0
134 157 0
135 157 0
136 157 0
-158 0
-151 157 -159 0
151 -157 -159 0
159 -157 -151 0
151 157 159 0
-44 -159 0
-160 132 -161 0
160 -132 -161 0
-160 -132 161 0
160 132 161 0
-41 -161 0
160 -133 -162 0
-160 133 -162 0
162 -160 -133 0
162 160 133 0
-42 162 0
-132 163 0
-133 163 0
-134 163 0
-135 163 0
-136 163 0
132 133 134 135 136 -163 0
160 -163 -164 0
-160 163 -164 0
-160 -163 164 0
160 163 164 0
-43 164 0
132 165 0
133 165 0
134 165 0
135 165 0
136 165 0
-166 0
-160 165 -167 0
160 -165 -167 0
167 -165 -160 0
160 165 167 0
-44 -167 0
-168 133 -169 0
168 -133 -169 0
-168 -133 169 0
168 133 169 0
-41 -169 0
168 -134 -170 0
-168 134 -170 0
170 -168 -134 0
170 168 134 0
-42 170 0
-133 171 0
-134 171 0
-135 171 0
-136 171 0
133 134 135 136 -171 0
168 -171 -172 0
-168 171 -172 0
-168 -171 172 0
168 171 172 0
-43 172 0
133 173 0
134 173 0
135 173 0
136 173 0
-174 0
-168 173 -175 0
168 -173 -175 0
175 -173 -168 0
168 173 175 0
-44 -175 0
-176 134 -177 0
176 -134 -177 0
-176 -134 177 0
176 134 177 0
-41 -177 0
176 -135 -178 0
-176 135 -178 0
178 -176 -135 0
178 176 135 0
-42 178 0
176 -171 -179 0
-176 171 -179 0
-176 -171 179 0
176 171 179 0
-43 179 0
-176 173 -180 0
176 -173 -180 0
180 -173 -176 0
176 173 180 0
-44 -180 0
-181 135 -182 0
181 -135 -182 0
-181 -135 182 0
181 135 182 0
-41 -182 0
181 -136 -183 0
-181 136 -183 0
183 -181 -136 0
183 181 136 0
-42 183 0
181 -171 -184 0
-181 171 -184 0
-181 -171 184 0
181 171 184 0
-43 184 0
-181 173 -185 0
181 -173 -185 0
185 -173 -181 0
181 173 185 0
-44 -185 0
-186 136 -187 0
186 -136 -187 0
-186 -136 187 0
186 136 187 0
-41 -187 0
186 -133 -188 0
-186 133 -188 0
188 -186 -133 0
188 186 133 0
-42 188 0
-168 189 0
-136 189 0
168 136 -189 0
186 -189 -190 0
-186 189 -190 0
-186 -189 190 0
186 189 190 0
-43 190 0
168 191 0
136 191 0
-168 -136 -191 0
-186 191 -192 0
186 -191 -192 0
192 -191 -186 0
186 191 192 0
-44 -192 0
-9 193 -194 0
9 -193 -194 0
-9 -193 194 0
9 193 194 0
-41 -194 0
9 -195 -196 0
-9 195 -196 0
196 -9 -195 0
196 9 195 0
-42 196 0
-133 197 0
-134 197 0
-135 197 0
-136 197 0
-193 197 0
-195 197 0
198 0
9 -197 -199 0
-9 197 -199 0
-9 -197 199 0
9 197 199 0
-43 199 0
133 200 0
134 200 0
135 200 0
136 200 0
193 200 0
195 200 0
-201 0
-9 200 -202 0
9 -200 -202 0
202 -200 -9 0
9 200 202 0
-44 -202 0
-203 195 -204 0
203 -195 -204 0
-203 -195 204 0
203 195 204 0
-41 -204 0
203 -134 -205 0
-203 134 -205 0
205 -203 -134 0
205 203 134 0
-42 205 0
-133 206 0
-134 206 0
-135 206 0
-136 206 0
-195 206 0
133 134 135 136 195 -206 0
203 -206 -207 0
-203 206 -207 0
-203 -206 207 0
203 206 207 0
-43 207 0
133 208 0
134 208 0
135 208 0
136 208 0
195 208 0
-209 0
-203 208 -210 0
203 -208 -210 0
210 -208 -203 0
203 208 210 0
-44 -210 0
-10 211 -212 0
10 -211 -212 0
-10 -211 212 0
10 211 212 0
-41 -212 0
10 -213 -214 0
-10 213 -214 0
214 -10 -213 0
214 10 213 0
-42 214 0
-211 215 0
-213 215 0
-216 215 0
-217 215 0
-218 215 0
-219 215 0
-220 215 0
221 0
10 -215 -222 0
-10 215 -222 0
-10 -215 222 0
10 215 222 0
-43 222 0
211 223 0
213 223 0
216 223 0
217 223 0
218 223 0
219 223 0
220 223 0
-224 0
-10 223 -225 0
10 -223 -225 0
225 -223 -10 0
10 223 225 0
-44 -225 0
-226 213 -227 0
226 -213 -227 0
-226 -213 227 0
226 213 227 0
-41 -227 0
226 -216 -228 0
-226 216 -228 0
228 -226 -216 0
228 226 216 0
-42 228 0
-213 229 0
-216 229 0
-217 229 0
-218 229 0
-219 229 0
-220 229 0
230 0
226 -229 -231 0
-226 229 -231 0
-226 -229 231 0
226 229 231 0
-43 231 0
213 232 0
216 232 0
217 232 0
218 232 0
219 232 0
220 232 0
-233 0
-226 232 -234 0
226 -232 -234 0
234 -232 -226 0
226 232 234 0
-44 -234 0
-235 216 -236 0
235 -216 -236 0
-235 -216 236 0
235 216 236 0
-41 -236 0
235 -217 -237 0
-235 217 -237 0
237 -235 -217 0
237 235 217 0
-42 237 0
-216 238 0
-217 238 0
-218 238 0
-219 238 0
-220 238 0
216 217 218 219 220 -238 0
235 -238 -239 0
-235 238 -239 0
-235 -238 239 0
235 238 239 0
-43 239 0
216 240 0
217 240 0
218 240 0
219 240 0
220 240 0
-241 0
-235 240 -242 0
235 -240 -242 0
242 -240 -235 0
235 240 242 0
-44 -242 0
-243 217 -244 0
243 -217 -244 0
-243 -217 244 0
243 217 244 0
-41 -244 0
243 -218 -245 0
-243 218 -245 0
245 -243 -218 0
245 243 218 0
-42 245 0
-217 246 0
-218 246 0
-219 246 0
-220 246 0
217 218 219 220 -246 0
243 -246 -247 0
-243 246 -247 0
-243 -246 247 0
243 246 247 0
-43 247 0
217 248 0
218 248 0
219 248 0
220 248 0
-249 0
-243 248 -250 0
243 -248 -250 0
250 -248 -243 0
243 248 250 0
-44 -250 0
-251 218 -252 0
251 -218 -252 0
-251 -218 252 0
251 218 252 0
-41 -252 0
251 -219 -253 0
-251 219 -253 0
253 -251 -219 0
253 251 219 0
-42 253 0
251 -246 -254 0
-251 246 -254 0
-251 -246 254 0
251 246 254 0
-43 254 0
-251 248 -255 0
251 -248 -255 0
255 -248 -251 0
251 248 255 0
-44 -255 0
-256 219 -257 0
256 -219 -257 0
-256 -219 257 0
256 219 257 0
-41 -257 0
256 -220 -258 0
-256 220 -258 0
258 -256 -220 0
258 256 220 0
-42 258 0
256 -246 -259 0
-256 246 -259 0
-256 -246 259 0
256 246 259 0
-43 259 0
-256 248 -260 0
256 -248 -260 0
260 -248 -256 0
256 248 260 0
-44 -260 0
-261 220 -262 0
261 -220 -262 0
-261 -220 262 0
261 220 262 0
-41 -262 0
261 -217 -263 0
-261 217 -263 0
263 -261 -217 0
263 261 217 0
-42 263 0
-243 264 0
-220 264 0
243 220 -264 0
261 -264 -265 0
-261 264 -265 0
-261 -264 265 0
261 264 265 0
-43 265 0
243 266 0
220 266 0
-243 -220 -266 0
-261 266 -267 0
261 -266 -267 0
267 -266 -261 0
261 266 267 0
-44 -267 0
-11 268 -269 0
11 -268 -269 0
-11 -268 269 0
11 268 269 0
-41 -269 0
11 -270 -271 0
-11 270 -271 0
271 -11 -270 0
271 11 270 0
-42 271 0
-268 272 0
-270 272 0
268 270 -272 0
11 -272 -273 0
-11 272 -273 0
-11 -272 273 0
11 272 273 0
-43 273 0
268 274 0
270 274 0
-268 -270 -274 0
-11 274 -275 0
11 -274 -275 0
275 -274 -11 0
11 274 275 0
-44 -275 0
-12 270 -276 0
12 -270 -276 0
-12 -270 276 0
12 270 276 0
-41 -276 0
12 -270 -277 0
-12 270 -277 0
277 -12 -270 0
277 12 270 0
-42 277 0
-12 278 0
-270 278 0
12 270 -278 0
12 -278 -279 0
-12 278 -279 0
-12 -278 279 0
12 278 279 0
-43 279 0
12 280 0
270 280 0
-12 -270 -280 0
-12 280 -281 0
12 -280 -281 0
281 -280 -12 0
12 280 281 0
-44 -281 0
-13 282 -283 0
13 -282 -283 0
-13 -282 283 0
13 282 283 0
-41 -283 0
13 -193 -284 0
-13 193 -284 0
284 -13 -193 0
284 13 193 0
-42 284 0
-133 285 0
-134 285 0
-135 285 0
-136 285 0
-193 285 0
-195 285 0
-282 285 0
286 0
13 -285 -287 0
-13 285 -287 0
-13 -285 287 0
13 285 287 0
-43 287 0
133 288 0
134 288 0
135 288 0
136 288 0
193 288 0
195 288 0
282 288 0
-289 0
-13 288 -290 0
13 -288 -290 0
290 -288 -13 0
13 288 290 0
-44 -290 0
-14 291 -292 0
14 -291 -292 0
-14 -291 292 0
14 291 292 0
-41 -292 0
14 -293 -294 0
-14 293 -294 0
294 -14 -293 0
294 14 293 0
-42 294 0
-268 295 0
-270 295 0
-291 295 0
-293 295 0
268 270 291 293 -295 0
14 -295 -296 0
-14 295 -296 0
-14 -295 296 0
14 295 296 0
-43 296 0
268 297 0
270 297 0
291 297 0
293 297 0
-298 0
-14 297 -299 0
14 -297 -299 0
299 -297 -14 0
14 297 299 0
-44 -299 0
-15 293 -300 0
15 -293 -300 0
-15 -293 300 0
15 293 300 0
-41 -300 0
15 -268 -301 0
-15 268 -301 0
301 -15 -268 0
301 15 268 0
-42 301 0
-268 302 0
-270 302 0
-293 302 0
268 270 293 -302 0
15 -302 -303 0
-15 302 -303 0
-15 -302 303 0
15 302 303 0
-43 303 0
268 304 0
270 304 0
293 304 0
-268 -270 -293 -304 0
-15 304 -305 0
15 -304 -305 0
305 -304 -15 0
15 304 305 0
-44 -305 0
-16 306 -307 0
16 -306 -307 0
-16 -306 307 0
16 306 307 0
-41 -307 0
16 -308 -309 0
-16 308 -309 0
309 -16 -308 0
309 16 308 0
-42 309 0
-217 310 0
-218 310 0
-219 310 0
-220 310 0
-306 310 0
-308 310 0
311 0
16 -310 -312 0
-16 310 -312 0
-16 -310 312 0
16 310 312 0
-43 312 0
217 313 0
218 313 0
219 313 0
220 313 0
306 313 0
308 313 0
-314 0
-16 313 -315 0
16 -313 -315 0
315 -313 -16 0
16 313 315 0
-44 -315 0
-316 308 -317 0
316 -308 -317 0
-316 -308 317 0
316 308 317 0
-41 -317 0
316 -218 -318 0
-316 218 -318 0
318 -316 -218 0
318 316 218 0
-42 318 0
-217 319 0
-218 319 0
-219 319 0
-220 319 0
-308 319 0
217 218 219 220 308 -319 0
316 -319 -320 0
-316 319 -320 0
-316 -319 320 0
316 319 320 0
-43 320 0
217 321 0
218 321 0
219 321 0
220 321 0
308 321 0
-322 0
-316 321 -323 0
316 -321 -323 0
323 -321 -316 0
316 321 323 0
-44 -323 0
-17 324 -325 0
17 -324 -325 0
-17 -324 325 0
17 324 325 0
-41 -325 0
17 -96 -326 0
-17 96 -326 0
326 -17 -96 0
326 17 96 0
-42 326 0
-96 327 0
-98 327 0
-101 327 0
-102 327 0
-324 327 0
96 98 101 102 324 -327 0
17 -327 -328 0
-17 327 -328 0
-17 -327 328 0
17 327 328 0
-43 328 0
96 329 0
98 329 0
101 329 0
102 329 0
324 329 0
-330 0
-17 329 -331 0
17 -329 -331 0
331 -329 -17 0
17 329 331 0
-44 -331 0
-18 332 -333 0
18 -332 -333 0
-18 -332 333 0
18 332 333 0
-41 -333 0
18 -135 -334 0
-18 135 -334 0
334 -18 -135 0
334 18 135 0
-42 334 0
-133 335 0
-134 335 0
-135 335 0
-136 335 0
-332 335 0
133 134 135 136 332 -335 0
18 -335 -336 0
-18 335 -336 0
-18 -335 336 0
18 335 336 0
-43 336 0
133 337 0
134 337 0
135 337 0
136 337 0
332 337 0
-338 0
-18 337 -339 0
18 -337 -339 0
339 -337 -18 0
18 337 339 0
-44 -339 0
-19 340 -341 0
19 -340 -341 0
-19 -340 341 0
19 340 341 0
-41 -341 0
19 -342 -343 0
-19 342 -343 0
343 -19 -342 0
343 19 342 0
-42 343 0
-133 344 0
-134 344 0
-135 344 0
-136 344 0
-195 344 0
-340 344 0
-342 344 0
345 0
19 -344 -346 0
-19 344 -346 0
-19 -344 346 0
19 344 346 0
-43 346 0
133 347 0
134 347 0
135 347 0
136 347 0
195 347 0
340 347 0
342 347 0
-348 0
-19 347 -349 0
19 -347 -349 0
349 -347 -19 0
19 347 349 0
-44 -349 0
-350 342 -351 0
350 -342 -351 0
-350 -342 351 0
350 342 351 0
-41 -351 0
350 -195 -352 0
-350 195 -352 0
352 -350 -195 0
352 350 195 0
-42 352 0
-133 353 0
-134 353 0
-135 353 0
-136 353 0
-195 353 0
-342 353 0
354 0
350 -353 -355 0
-350 353 -355 0
-350 -353 355 0
350 353 355 0
-43 355 0
133 356 0
134 356 0
135 356 0
136 356 0
195 356 0
342 356 0
-357 0
-350 356 -358 0
350 -356 -358 0
358 -356 -350 0
350 356 358 0
-44 -358 0
-20 359 -360 0
20 -359 -360 0
-20 -359 360 0
20 359 360 0
-41 -360 0
20 -361 -362 0
-20 361 -362 0
362 -20 -361 0
362 20 361 0
-42 362 0
-67 363 0
-69 363 0
-72 363 0
-88 363 0
-359 363 0
-361 363 0
-364 363 0
365 0
20 -363 -366 0
-20 363 -366 0
-20 -363 366 0
20 363 366 0
-43 366 0
67 367 0
69 367 0
72 367 0
88 367 0
359 367 0
361 367 0
364 367 0
-368 0
-20 367 -369 0
20 -367 -369 0
369 -367 -20 0
20 367 369 0
-44 -369 0
-21 361 -370 0
21 -361 -370 0
-21 -361 370 0
21 361 370 0
-41 -370 0
21 -364 -371 0
-21 364 -371 0
371 -21 -364 0
371 21 364 0
-42 371 0
-67 372 0
-69 372 0
-72 372 0
-88 372 0
-361 372 0
-364 372 0
67 69 72 88 361 364 -372 0
21 -372 -373 0
-21 372 -373 0
-21 -372 373 0
21 372 373 0
-43 373 0
67 374 0
69 374 0
72 374 0
88 374 0
361 374 0
364 374 0
-375 0
-21 374 -376 0
21 -374 -376 0
376 -374 -21 0
21 374 376 0
-44 -376 0
-377 364 -378 0
377 -364 -378 0
-377 -364 378 0
377 364 378 0
-41 -378 0
377 -88 -379 0
-377 88 -379 0
379 -377 -88 0
379 377 88 0
-42 379 0
-67 380 0
-69 380 0
-72 380 0
-88 380 0
-364 380 0
67 69 72 88 364 -380 0
377 -380 -381 0
-377 380 -381 0
-377 -380 381 0
377 380 381 0
-43 381 0
67 382 0
69 382 0
72 382 0
88 382 0
364 382 0
-383 0
-377 382 -384 0
377 -382 -384 0
384 -382 -377 0
377 382 384 0
-44 -384 0
-22 385 -386 0
22 -385 -386 0
-22 -385 386 0
22 385 386 0
-41 -386 0
22 -98 -387 0
-22 98 -387 0
387 -22 -98 0
387 22 98 0
-42 387 0
-98 388 0
-101 388 0
-102 388 0
-385 388 0
98 101 102 385 -388 0
22 -388 -389 0
-22 388 -389 0
-22 -388 389 0
22 388 389 0
-43 389 0
98 390 0
101 390 0
102 390 0
385 390 0
-391 0
-22 390 -392 0
22 -390 -392 0
392 -390 -22 0
22 390 392 0
-44 -392 0
-23 393 -394 0
23 -393 -394 0
-23 -393 394 0
23 393 394 0
-41 -394 0
23 -395 -396 0
-23 395 -396 0
396 -23 -395 0
396 23 395 0
-42 396 0
-393 397 0
-395 397 0
-398 397 0
-399 397 0
-400 397 0
-401 397 0
-402 397 0
403 0
23 -397 -404 0
-23 397 -404 0
-23 -397 404 0
23 397 404 0
-43 404 0
393 405 0
395 405 0
398 405 0
399 405 0
400 405 0
401 405 0
402 405 0
-406 0
-23 405 -407 0
23 -405 -407 0
407 -405 -23 0
23 405 407 0
-44 -407 0
-408 395 -409 0
408 -395 -409 0
-408 -395 409 0
408 395 409 0
-41 -409 0
408 -398 -410 0
-408 398 -410 0
410 -408 -398 0
410 408 398 0
-42 410 0
-395 411 0
-398 411 0
-399 411 0
-400 411 0
-401 411 0
-402 411 0
412 0
408 -411 -413 0
-408 411 -413 0
-408 -411 413 0
408 411 413 0
-43 413 0
395 414 0
398 414 0
399 414 0
400 414 0
401 414 0
402 414 0
-415 0
-408 414 -416 0
408 -414 -416 0
416 -414 -408 0
408 414 416 0
-44 -416 0
-417 398 -418 0
417 -398 -418 0
-417 -398 418 0
417 398 418 0
-41 -418 0
417 -399 -419 0
-417 399 -419 0
419 -417 -399 0
419 417 399 0
-42 419 0
-398 420 0
-399 420 0
-400 420 0
-401 420 0
-402 420 0
398 399 400 401 402 -420 0
417 -420 -421 0
-417 420 -421 0
-417 -420 421 0
417 420 421 0
-43 421 0
398 422 0
399 422 0
400 422 0
401 422 0
402 422 0
-423 0
-417 422 -424 0
417 -422 -424 0
424 -422 -417 0
417 422 424 0
-44 -424 0
-425 399 -426 0
425 -399 -426 0
-425 -399 426 0
425 399 426 0
-41 -426 0
425 -400 -427 0
-425 400 -427 0
427 -425 -400 0
427 425 400 0
-42 427 0
-399 428 0
-400 428 0
-401 428 0
-402 428 0
399 400 401 402 -428 0
425 -428 -429 0
-425 428 -429 0
-425 -428 429 0
425 428 429 0
-43 429 0
399 430 0
400 430 0
401 430 0
402 430 0
-431 0
-425 430 -432 0
425 -430 -432 0
432 -430 -425 0
425 430 432 0
-44 -432 0
-433 400 -434 0
433 -400 -434 0
-433 -400 434 0
433 400 434 0
-41 -434 0
433 -401 -435 0
-433 401 -435 0
435 -433 -401 0
435 433 401 0
-42 435 0
-400 436 0
-401 436 0
-402 436 0
400 401 402 -436 0
433 -436 -437 0
-433 436 -437 0
-433 -436 437 0
433 436 437 0
-43 437 0
400 438 0
401 438 0
402 438 0
-400 -401 -402 -438 0
-433 438 -439 0
433 -438 -439 0
439 -438 -433 0
433 438 439 0
-44 -439 0
-440 401 -441 0
440 -401 -441 0
-440 -401 441 0
440 401 441 0
-41 -441 0
440 -402 -442 0
-440 402 -442 0
442 -440 -402 0
442 440 402 0
-42 442 0
440 -436 -443 0
-440 436 -443 0
-440 -436 443 0
440 436 443 0
-43 443 0
-440 438 -444 0
440 -438 -444 0
444 -438 -440 0
440 438 444 0
-44 -444 0
-445 402 -446 0
445 -402 -446 0
-445 -402 446 0
445 402 446 0
-41 -446 0
445 -400 -447 0
-445 400 -447 0
447 -445 -400 0
447 445 400 0
-42 447 0
-433 448 0
-402 448 0
433 402 -448 0
445 -448 -449 0
-445 448 -449 0
-445 -448 449 0
445 448 449 0
-43 449 0
433 450 0
402 450 0
-433 -402 -450 0
-445 450 -451 0
445 -450 -451 0
451 -450 -445 0
445 450 451 0
-44 -451 0
-24 452 -453 0
24 -452 -453 0
-24 -452 453 0
24 452 453 0
-41 -453 0
24 -454 -455 0
-24 454 -455 0
455 -24 -454 0
455 24 454 0
-42 455 0
-400 456 0
-401 456 0
-402 456 0
-452 456 0
-454 456 0
400 401 402 452 454 -456 0
24 -456 -457 0
-24 456 -457 0
-24 -456 457 0
24 456 457 0
-43 457 0
400 458 0
401 458 0
402 458 0
452 458 0
454 458 0
-459 0
-24 458 -460 0
24 -458 -460 0
460 -458 -24 0
24 458 460 0
-44 -460 0
-461 454 -462 0
461 -454 -462 0
-461 -454 462 0
461 454 462 0
-41 -462 0
461 -401 -463 0
-461 401 -463 0
463 -461 -401 0
463 461 401 0
-42 463 0
-400 464 0
-401 464 0
-402 464 0
-454 464 0
400 401 402 454 -464 0
461 -464 -465 0
-461 464 -465 0
-461 -464 465 0
461 464 465 0
-43 465 0
400 466 0
401 466 0
402 466 0
454 466 0
-467 0
-461 466 -468 0
461 -466 -468 0
468 -466 -461 0
461 466 468 0
-44 -468 0
-25 469 -470 0
25 -469 -470 0
-25 -469 470 0
25 469 470 0
-41 -470 0
25 -471 -472 0
-25 471 -472 0
472 -25 -471 0
472 25 471 0
-42 472 0
-98 473 0
-101 473 0
-102 473 0
-385 473 0
-469 473 0
-471 473 0
98 101 102 385 469 471 -473 0
25 -473 -474 0
-25 473 -474 0
-25 -473 474 0
25 473 474 0
-43 474 0
98 475 0
101 475 0
102 475 0
385 475 0
469 475 0
471 475 0
-476 0
-25 475 -477 0
25 -475 -477 0
477 -475 -25 0
25 475 477 0
-44 -477 0
-478 471 -479 0
478 -471 -479 0
-478 -471 479 0
478 471 479 0
-41 -479 0
478 -385 -480 0
-478 385 -480 0
480 -478 -385 0
480 478 385 0
-42 480 0
-98 481 0
-101 481 0
-102 481 0
-385 481 0
-471 481 0
98 101 102 385 471 -481 0
478 -481 -482 0
-478 481 -482 0
-478 -481 482 0
478 481 482 0
-43 482 0
98 483 0
101 483 0
102 483 0
385 483 0
471 483 0
-484 0
-478 483 -485 0
478 -483 -485 0
485 -483 -478 0
478 483 485 0
-44 -485 0
-26 486 -487 0
26 -486 -487 0
-26 -486 487 0
26 486 487 0
-41 -487 0
26 -488 -489 0
-26 488 -489 0
489 -26 -488 0
489 26 488 0
-42 489 0
-98 490 0
-101 490 0
-102 490 0
-385 490 0
-486 490 0
-488 490 0
98 101 102 385 486 488 -490 0
26 -490 -491 0
-26 490 -491 0
-26 -490 491 0
26 490 491 0
-43 491 0
98 492 0
101 492 0
102 492 0
385 492 0
486 492 0
488 492 0
-493 0
-26 492 -494 0
26 -492 -494 0
494 -492 -26 0
26 492 494 0
-44 -494 0
-27 488 -495 0
27 -488 -495 0
-27 -488 495 0
27 488 495 0
-41 -495 0
27 -385 -496 0
-27 385 -496 0
496 -27 -385 0
496 27 385 0
-42 496 0
-98 497 0
-101 497 0
-102 497 0
-385 497 0
-488 497 0
98 101 102 385 488 -497 0
27 -497 -498 0
-27 497 -498 0
-27 -497 498 0
27 497 498 0
-43 498 0
98 499 0
101 499 0
102 499 0
385 499 0
488 499 0
-500 0
-27 499 -501 0
27 -499 -501 0
501 -499 -27 0
27 499 501 0
-44 -501 0
-28 502 -503 0
28 -502 -503 0
-28 -502 503 0
28 502 503 0
-41 -503 0
28 -504 -505 0
-28 504 -505 0
505 -28 -504 0
505 28 504 0
-42 505 0
-67 506 0
-69 506 0
-72 506 0
-502 506 0
-504 506 0
67 69 72 502 504 -506 0
28 -506 -507 0
-28 506 -507 0
-28 -506 507 0
28 506 507 0
-43 507 0
67 508 0
69 508 0
72 508 0
502 508 0
504 508 0
-509 0
-28 508 -510 0
28 -508 -510 0
510 -508 -28 0
28 508 510 0
-44 -510 0
-511 504 -512 0
511 -504 -512 0
-511 -504 512 0
511 504 512 0
-41 -512 0
511 -69 -513 0
-511 69 -513 0
513 -511 -69 0
513 511 69 0
-42 513 0
-67 514 0
-69 514 0
-72 514 0
-504 514 0
67 69 72 504 -514 0
511 -514 -515 0
-511 514 -515 0
-511 -514 515 0
511 514 515 0
-43 515 0
67 516 0
69 516 0
72 516 0
504 516 0
-517 0
-511 516 -518 0
511 -516 -518 0
518 -516 -511 0
511 516 518 0
-44 -518 0
-29 519 -520 0
29 -519 -520 0
-29 -519 520 0
29 519 520 0
-41 -520 0
29 -488 -521 0
-29 488 -521 0
521 -29 -488 0
521 29 488 0
-42 521 0
-98 522 0
-101 522 0
-102 522 0
-385 522 0
-488 522 0
-519 522 0
98 101 102 385 488 519 -522 0
29 -522 -523 0
-29 522 -523 0
-29 -522 523 0
29 522 523 0
-43 523 0
98 524 0
101 524 0
102 524 0
385 524 0
488 524 0
519 524 0
-525 0
-29 524 -526 0
29 -524 -526 0
526 -524 -29 0
29 524 526 0
-44 -526 0
-30 527 -528 0
30 -527 -528 0
-30 -527 528 0
30 527 528 0
-41 -528 0
30 -52 -529 0
-30 52 -529 0
529 -30 -52 0
529 30 52 0
-42 529 0
-52 530 0
-45 530 0
-54 530 0
-527 530 0
52 45 54 527 -530 0
30 -530 -531 0
-30 530 -531 0
-30 -530 531 0
30 530 531 0
-43 531 0
52 532 0
45 532 0
54 532 0
527 532 0
-533 0
-30 532 -534 0
30 -532 -534 0
534 -532 -30 0
30 532 534 0
-44 -534 0
-31 535 -536 0
31 -535 -536 0
-31 -535 536 0
31 535 536 0
-41 -536 0
31 -52 -537 0
-31 52 -537 0
537 -31 -52 0
537 31 52 0
-42 537 0
-52 538 0
-45 538 0
-54 538 0
-535 538 0
52 45 54 535 -538 0
31 -538 -539 0
-31 538 -539 0
-31 -538 539 0
31 538 539 0
-43 539 0
52 540 0
45 540 0
54 540 0
535 540 0
-541 0
-31 540 -542 0
31 -540 -542 0
542 -540 -31 0
31 540 542 0
-44 -542 0
-32 543 -544 0
32 -543 -544 0
-32 -543 544 0
32 543 544 0
-41 -544 0
32 -535 -545 0
-32 535 -545 0
545 -32 -535 0
545 32 535 0
-42 545 0
-52 546 0
-45 546 0
-54 546 0
-535 546 0
-543 546 0
52 45 54 535 543 -546 0
32 -546 -547 0
-32 546 -547 0
-32 -546 547 0
32 546 547 0
-43 547 0
52 548 0
45 548 0
54 548 0
535 548 0
543 548 0
-549 0
-32 548 -550 0
32 -548 -550 0
550 -548 -32 0
32 548 550 0
-44 -550 0
-33 551 -552 0
33 -551 -552 0
-33 -551 552 0
33 551 552 0
-41 -552 0
33 -553 -554 0
-33 553 -554 0
554 -33 -553 0
554 33 553 0
-42 554 0
-217 555 0
-218 555 0
-219 555 0
-220 555 0
-551 555 0
-553 555 0
556 0
33 -555 -557 0
-33 555 -557 0
-33 -555 557 0
33 555 557 0
-43 557 0
217 558 0
218 558 0
219 558 0
220 558 0
551 558 0
553 558 0
-559 0
-33 558 -560 0
33 -558 -560 0
560 -558 -33 0
33 558 560 0
-44 -560 0
-561 553 -562 0
561 -553 -562 0
-561 -553 562 0
561 553 562 0
-41 -562 0
561 -220 -563 0
-561 220 -563 0
563 -561 -220 0
563 561 220 0
-42 563 0
-217 564 0
-218 564 0
-219 564 0
-220 564 0
-553 564 0
217 218 219 220 553 -564 0
561 -564 -565 0
-561 564 -565 0
-561 -564 565 0
561 564 565 0
-43 565 0
217 566 0
218 566 0
219 566 0
220 566 0
553 566 0
-567 0
-561 566 -568 0
561 -566 -568 0
568 -566 -561 0
561 566 568 0
-44 -568 0
-34 569 -570 0
34 -569 -570 0
-34 -569 570 0
34 569 570 0
-41 -570 0
34 -571 -572 0
-34 571 -572 0
572 -34 -571 0
572 34 571 0
-42 572 0
-45 573 0
-54 573 0
-569 573 0
-571 573 0
-574 573 0
45 54 569 571 574 -573 0
34 -573 -575 0
-34 573 -575 0
-34 -573 575 0
34 573 575 0
-43 575 0
45 576 0
54 576 0
569 576 0
571 576 0
574 576 0
-577 0
-34 576 -578 0
34 -576 -578 0
578 -576 -34 0
34 576 578 0
-44 -578 0
-579 571 -580 0
579 -571 -580 0
-579 -571 580 0
579 571 580 0
-41 -580 0
579 -574 -581 0
-579 574 -581 0
581 -579 -574 0
581 579 574 0
-42 581 0
-45 582 0
-54 582 0
-571 582 0
-574 582 0
45 54 571 574 -582 0
579 -582 -583 0
-579 582 -583 0
-579 -582 583 0
579 582 583 0
-43 583 0
45 584 0
54 584 0
571 584 0
574 584 0
-585 0
-579 584 -586 0
579 -584 -586 0
586 -584 -579 0
579 584 586 0
-44 -586 0
-587 574 -588 0
587 -574 -588 0
-587 -574 588 0
587 574 588 0
-41 -588 0
587 -54 -589 0
-587 54 -589 0
589 -587 -54 0
589 587 54 0
-42 589 0
-45 590 0
-54 590 0
-574 590 0
45 54 574 -590 0
587 -590 -591 0
-587 590 -591 0
-587 -590 591 0
587 590 591 0
-43 591 0
45 592 0
54 592 0
574 592 0
-45 -54 -574 -592 0
-587 592 -593 0
587 -592 -593 0
593 -592 -587 0
587 592 593 0
-44 -593 0
-35 594 -595 0
35 -594 -595 0
-35 -594 595 0
35 594 595 0
-41 -595 0
35 -132 -596 0
-35 132 -596 0
596 -35 -132 0
596 35 132 0
-42 596 0
-132 597 0
-133 597 0
-134 597 0
-135 597 0
-136 597 0
-594 597 0
598 0
35 -597 -599 0
-35 597 -599 0
-35 -597 599 0
35 597 599 0
-43 599 0
132 600 0
133 600 0
134 600 0
135 600 0
136 600 0
594 600 0
-601 0
-35 600 -602 0
35 -600 -602 0
602 -600 -35 0
35 600 602 0
-44 -602 0
-36 603 -604 0
36 -603 -604 0
-36 -603 604 0
36 603 604 0
-41 -604 0
36 -605 -606 0
-36 605 -606 0
606 -36 -605 0
606 36 605 0
-42 606 0
-133 607 0
-134 607 0
-135 607 0
-136 607 0
-193 607 0
-195 607 0
-603 607 0
-605 607 0
-608 607 0
-609 607 0
-610 607 0
-611 607 0
-612 607 0
-613 607 0
614 0
36 -607 -615 0
-36 607 -615 0
-36 -607 615 0
36 607 615 0
-43 615 0
133 616 0
134 616 0
135 616 0
136 616 0
193 616 0
195 616 0
603 616 0
605 616 0
608 616 0
609 616 0
610 616 0
611 616 0
612 616 0
613 616 0
-617 0
-36 616 -618 0
36 -616 -618 0
618 -616 -36 0
36 616 618 0
-44 -618 0
-619 605 -620 0
619 -605 -620 0
-619 -605 620 0
619 605 620 0
-41 -620 0
619 -608 -621 0
-619 608 -621 0
621 -619 -608 0
621 619 608 0
-42 621 0
-133 622 0
-134 622 0
-135 622 0
-136 622 0
-193 622 0
-195 622 0
-605 622 0
-608 622 0
-609 622 0
-610 622 0
-611 622 0
-612 622 0
-613 622 0
623 0
619 -622 -624 0
-619 622 -624 0
-619 -622 624 0
619 622 624 0
-43 624 0
133 625 0
134 625 0
135 625 0
136 625 0
193 625 0
195 625 0
605 625 0
608 625 0
609 625 0
610 625 0
611 625 0
612 625 0
613 625 0
-626 0
-619 625 -627 0
619 -625 -627 0
627 -625 -619 0
619 625 627 0
-44 -627 0
-628 608 -629 0
628 -608 -629 0
-628 -608 629 0
628 608 629 0
-41 -629 0
628 -609 -630 0
-628 609 -630 0
630 -628 -609 0
630 628 609 0
-42 630 0
-133 631 0
-134 631 0
-135 631 0
-136 631 0
-193 631 0
-195 631 0
-608 631 0
-609 631 0
-610 631 0
-611 631 0
-612 631 0
-613 631 0
632 0
628 -631 -633 0
-628 631 -633 0
-628 -631 633 0
628 631 633 0
-43 633 0
133 634 0
134 634 0
135 634 0
136 634 0
193 634 0
195 634 0
608 634 0
609 634 0
610 634 0
611 634 0
612 634 0
613 634 0
-635 0
-628 634 -636 0
628 -634 -636 0
636 -634 -628 0
628 634 636 0
-44 -636 0
-637 609 -638 0
637 -609 -638 0
-637 -609 638 0
637 609 638 0
-41 -638 0
637 -610 -639 0
-637 610 -639 0
639 -637 -610 0
639 637 610 0
-42 639 0
-133 640 0
-134 640 0
-135 640 0
-136 640 0
-193 640 0
-195 640 0
-609 640 0
-610 640 0
-611 640 0
-612 640 0
-613 640 0
641 0
637 -640 -642 0
-637 640 -642 0
-637 -640 642 0
637 640 642 0
-43 642 0
133 643 0
134 643 0
135 643 0
136 643 0
193 643 0
195 643 0
609 643 0
610 643 0
611 643 0
612 643 0
613 643 0
-644 0
-637 643 -645 0
637 -643 -645 0
645 -643 -637 0
637 643 645 0
-44 -645 0
-646 610 -647 0
646 -610 -647 0
-646 -610 647 0
646 610 647 0
-41 -647 0
646 -611 -648 0
-646 611 -648 0
648 -646 -611 0
648 646 611 0
-42 648 0
-133 649 0
-134 649 0
-135 649 0
-136 649 0
-193 649 0
-195 649 0
-610 649 0
-611 649 0
-612 649 0
-613 649 0
650 0
646 -649 -651 0
-646 649 -651 0
-646 -649 651 0
646 649 651 0
-43 651 0
133 652 0
134 652 0
135 652 0
136 652 0
193 652 0
195 652 0
610 652 0
611 652 0
612 652 0
613 652 0
-653 0
-646 652 -654 0
646 -652 -654 0
654 -652 -646 0
646 652 654 0
-44 -654 0
-655 611 -656 0
655 -611 -656 0
-655 -611 656 0
655 611 656 0
-41 -656 0
655 -612 -657 0
-655 612 -657 0
657 -655 -612 0
657 655 612 0
-42 657 0
-133 658 0
-134 658 0
-135 658 0
-136 658 0
-193 658 0
-195 658 0
-611 658 0
-612 658 0
-613 658 0
659 0
655 -658 -660 0
-655 658 -660 0
-655 -658 660 0
655 658 660 0
-43 660 0
133 661 0
134 661 0
135 661 0
136 661 0
193 661 0
195 661 0
611 661 0
612 661 0
613 661 0
-662 0
-655 661 -663 0
655 -661 -663 0
663 -661 -655 0
655 661 663 0
-44 -663 0
-664 612 -665 0
664 -612 -665 0
-664 -612 665 0
664 612 665 0
-41 -665 0
664 -613 -666 0
-664 613 -666 0
666 -664 -613 0
666 664 613 0
-42 666 0
-133 667 0
-134 667 0
-135 667 0
-136 667 0
-193 667 0
-195 667 0
-612 667 0
-613 667 0
668 0
664 -667 -669 0
-664 667 -669 0
-664 -667 669 0
664 667 669 0
-43 669 0
133 670 0
134 670 0
135 670 0
136 670 0
193 670 0
195 670 0
612 670 0
613 670 0
-671 0
-664 670 -672 0
664 -670 -672 0
672 -670 -664 0
664 670 672 0
-44 -672 0
-673 613 -674 0
673 -613 -674 0
-673 -613 674 0
673 613 674 0
-41 -674 0
673 -193 -675 0
-673 193 -675 0
675 -673 -193 0
675 673 193 0
-42 675 0
-133 676 0
-134 676 0
-135 676 0
-136 676 0
-193 676 0
-195 676 0
-613 676 0
677 0
673 -676 -678 0
-673 676 -678 0
-673 -676 678 0
673 676 678 0
-43 678 0
133 679 0
134 679 0
135 679 0
136 679 0
193 679 0
195 679 0
613 679 0
-680 0
-673 679 -681 0
673 -679 -681 0
681 -679 -673 0
673 679 681 0
-44 -681 0
-37 682 -683 0
37 -682 -683 0
-37 -682 683 0
37 682 683 0
-41 -683 0
37 -684 -685 0
-37 684 -685 0
685 -37 -684 0
685 37 684 0
-42 685 0
-216 686 0
-217 686 0
-218 686 0
-219 686 0
-220 686 0
-682 686 0
-684 686 0
-687 686 0
688 0
37 -686 -689 0
-37 686 -689 0
-37 -686 689 0
37 686 689 0
-43 689 0
216 690 0
217 690 0
218 690 0
219 690 0
220 690 0
682 690 0
684 690 0
687 690 0
-691 0
-37 690 -692 0
37 -690 -692 0
692 -690 -37 0
37 690 692 0
-44 -692 0
-693 684 -694 0
693 -684 -694 0
-693 -684 694 0
693 684 694 0
-41 -694 0
693 -687 -695 0
-693 687 -695 0
695 -693 -687 0
695 693 687 0
-42 695 0
-216 696 0
-217 696 0
-218 696 0
-219 696 0
-220 696 0
-684 696 0
-687 696 0
697 0
693 -696 -698 0
-693 696 -698 0
-693 -696 698 0
693 696 698 0
-43 698 0
216 699 0
217 699 0
218 699 0
219 699 0
220 699 0
684 699 0
687 699 0
-700 0
-693 699 -701 0
693 -699 -701 0
701 -699 -693 0
693 699 701 0
-44 -701 0
-702 687 -703 0
702 -687 -703 0
-702 -687 703 0
702 687 703 0
-41 -703 0
702 -216 -704 0
-702 216 -704 0
704 -702 -216 0
704 702 216 0
-42 704 0
-216 705 0
-217 705 0
-218 705 0
-219 705 0
-220 705 0
-687 705 0
706 0
702 -705 -707 0
-702 705 -707 0
-702 -705 707 0
702 705 707 0
-43 707 0
216 708 0
217 708 0
218 708 0
219 708 0
220 708 0
687 708 0
-709 0
-702 708 -710 0
702 -708 -710 0
710 -708 -702 0
702 708 710 0
-44 -710 0
-38 711 -712 0
38 -711 -712 0
-38 -711 712 0
38 711 712 0
-41 -712 0
38 -713 -714 0
-38 713 -714 0
714 -38 -713 0
714 38 713 0
-42 714 0
-133 715 0
-134 715 0
-135 715 0
-136 715 0
-193 715 0
-195 715 0
-611 715 0
-612 715 0
-613 715 0
-711 715 0
-713 715 0
-716 715 0
717 0
38 -715 -718 0
-38 715 -718 0
-38 -715 718 0
38 715 718 0
-43 718 0
133 719 0
134 719 0
135 719 0
136 719 0
193 719 0
195 719 0
611 719 0
612 719 0
613 719 0
711 719 0
713 719 0
716 719 0
-720 0
-38 719 -721 0
38 -719 -721 0
721 -719 -38 0
38 719 721 0
-44 -721 0
-722 713 -723 0
722 -713 -723 0
-722 -713 723 0
722 713 723 0
-41 -723 0
722 -716 -724 0
-722 716 -724 0
724 -722 -716 0
724 722 716 0
-42 724 0
-133 725 0
-134 725 0
-135 725 0
-136 725 0
-193 725 0
-195 725 0
-611 725 0
-612 725 0
-613 725 0
-713 725 0
-716 725 0
726 0
722 -725 -727 0
-722 725 -727 0
-722 -725 727 0
722 725 727 0
-43 727 0
133 728 0
134 728 0
135 728 0
136 728 0
193 728 0
195 728 0
611 728 0
612 728 0
613 728 0
713 728 0
716 728 0
-729 0
-722 728 -730 0
722 -728 -730 0
730 -728 -722 0
722 728 730 0
-44 -730 0
-731 716 -732 0
731 -716 -732 0
-731 -716 732 0
731 716 732 0
-41 -732 0
731 -611 -733 0
-731 611 -733 0
733 -731 -611 0
733 731 611 0
-42 733 0
-133 734 0
-134 734 0
-135 734 0
-136 734 0
-193 734 0
-195 734 0
-611 734 0
-612 734 0
-613 734 0
-716 734 0
735 0
731 -734 -736 0
-731 734 -736 0
-731 -734 736 0
731 734 736 0
-43 736 0
133 737 0
134 737 0
135 737 0
136 737 0
193 737 0
195 737 0
611 737 0
612 737 0
613 737 0
716 737 0
-738 0
-731 737 -739 0
731 -737 -739 0
739 -737 -731 0
731 737 739 0
-44 -739 0
-39 740 -741 0
39 -740 -741 0
-39 -740 741 0
39 740 741 0
-41 -741 0
39 -574 -742 0
-39 574 -742 0
742 -39 -574 0
742 39 574 0
-42 742 0
-45 743 0
-54 743 0
-574 743 0
-740 743 0
45 54 574 740 -743 0
39 -743 -744 0
-39 743 -744 0
-39 -743 744 0
39 743 744 0
-43 744 0
45 745 0
54 745 0
574 745 0
740 745 0
-746 0
-39 745 -747 0
39 -745 -747 0
747 -745 -39 0
39 745 747 0
-44 -747 0
-40 748 -749 0
40 -748 -749 0
-40 -748 749 0
40 748 749 0
-41 -749 0
40 -750 -751 0
-40 750 -751 0
751 -40 -750 0
751 40 750 0
-42 751 0
-67 752 0
-69 752 0
-72 752 0
-504 752 0
-748 752 0
-750 752 0
67 69 72 504 748 750 -752 0
40 -752 -753 0
-40 752 -753 0
-40 -752 753 0
40 752 753 0
-43 753 0
67 754 0
69 754 0
72 754 0
504 754 0
748 754 0
750 754 0
-755 0
-40 754 -756 0
40 -754 -756 0
756 -754 -40 0
40 754 756 0
-44 -756 0
-757 750 -758 0
757 -750 -758 0
-757 -750 758 0
757 750 758 0
-41 -758 0
757 -504 -759 0
-757 504 -759 0
759 -757 -504 0
759 757 504 0
-42 759 0
-67 760 0
-69 760 0
-72 760 0
-504 760 0
-750 760 0
67 69 72 504 750 -760 0
757 -760 -761 0
-757 760 -761 0
-757 -760 761 0
757 760 761 0
-43 761 0
67 762 0
69 762 0
72 762 0
504 762 0
750 762 0
-763 0
-757 762 -764 0
757 -762 -764 0
764 -762 -757 0
757 762 764 0
-44 -764 0
45 -765 0
52 -765 0
-765 -54 0
67 -765 0
69 -765 0
-765 -72 0
-765 -88 0
-765 -96 0
-765 -98 0
-765 -101 0
102 -765 0
-765 -126 0
-765 -128 0
-765 -131 0
-765 -132 0
-765 -133 0
-765 -134 0
-765 -135 0
136 -765 0
-765 -193 0
195 -765 0
-765 -211 0
213 -765 0
-765 -216 0
-765 -217 0
-765 -218 0
219 -765 0
220 -765 0
268 -765 0
-765 -270 0
282 -765 0
291 -765 0
-765 -293 0
-765 -306 0
308 -765 0
-765 -324 0
332 -765 0
340 -765 0
342 -765 0
-765 -359 0
-765 -361 0
-765 -364 0
385 -765 0
393 -765 0
395 -765 0
-765 -398 0
399 -765 0
-765 -400 0
401 -765 0
-765 -402 0
-765 -452 0
454 -765 0
469 -765 0
-765 -471 0
486 -765 0
488 -765 0
502 -765 0
-765 -504 0
-765 -519 0
-765 -527 0
535 -765 0
543 -765 0
551 -765 0
-765 -553 0
-765 -569 0
-765 -571 0
-765 -574 0
594 -765 0
-765 -603 0
605 -765 0
-765 -608 0
-765 -609 0
-765 -610 0
611 -765 0
612 -765 0
613 -765 0
682 -765 0
-765 -684 0
-765 -687 0
-765 -711 0
713 -765 0
716 -765 0
740 -765 0
-765 -748 0
-765 -750 0
765 0
-766 0
-767 0
-768 0
-769 0
-770 0
-771 0
-772 0
-773 0
